# Solution for model GasLib-40
# Objective value = 30.2296702659118
loadshed[innode_1] 0
loadshed[innode_2] 0
loadshed[innode_3] 0
loadshed[innode_4] 0
loadshed[innode_5] 0
loadshed[innode_6] 0
loadshed[innode_7] 0
loadshed[innode_8] 0
loadshed[source_1] -1.0681656306993492e-01
loadshed[source_2] 5.3761454173164913e-02
loadshed[source_3] 2.4427287820449572e-01
loadshed[sink_1] 0
loadshed[sink_2] 0
loadshed[sink_3] 0
loadshed[sink_4] 0
loadshed[sink_5] 0
loadshed[sink_6] 0
loadshed[sink_7] 0
loadshed[sink_8] 0
loadshed[sink_9] 0
loadshed[sink_10] 0
loadshed[sink_11] 0
loadshed[sink_12] 1
loadshed[sink_13] 0
loadshed[sink_14] 0
loadshed[sink_15] 0
loadshed[sink_16] 0
loadshed[sink_17] 0
loadshed[sink_18] 0
loadshed[sink_19] 0
loadshed[sink_20] 0
loadshed[sink_21] 8.4843843664174035e-01
loadshed[sink_22] 0
loadshed[sink_23] 0
loadshed[sink_24] 0
loadshed[sink_25] 0
loadshed[sink_26] 0
loadshed[sink_27] 0
loadshed[sink_28] 0
loadshed[sink_29] 0
flow[source_1,sink_3] 1.7497693790477132e+02
flow[innode_1,sink_16] 1.6354166666666970e+01
flow[innode_6,sink_13] -4.9939439421844156e+00
flow[sink_13,sink_14] -2.1348110608851083e+01
flow[sink_14,sink_10] -3.7702277275517751e+01
flow[sink_25,sink_26] 2.1508282973409007e+02
flow[sink_26,sink_9] 8.1770833333333655e+01
flow[sink_9,sink_18] 6.5416666666666671e+01
flow[sink_26,sink_4] 1.1695782973408983e+02
flow[sink_4,sink_20] 0
flow[sink_18,sink_6] 4.9062500000000313e+01
flow[sink_25,innode_8] -1.4226860457143493e+02
flow[sink_6,sink_7] 0
flow[sink_6,sink_22] 3.2708333333333641e+01
flow[sink_7,sink_24] 18.8328297340882
flow[sink_22,sink_1] 1.6354166666666970e+01
flow[sink_24,sink_21] 2.4786630674215377e+00
flow[sink_21,sink_12] 0
flow[sink_7,sink_5] -3.5186996400754865e+01
flow[sink_5,sink_17] -5.1541163067421536e+01
flow[sink_17,sink_4] -1.0060366306742316e+02
flow[sink_17,sink_8] 3.2708333333334949e+01
flow[sink_3,sink_23] 16.3541666666697
flow[sink_8,sink_20] 1.6354166666668277e+01
flow[sink_25,sink_20] 0
flow[sink_25,sink_15] -8.4174447887136978e+01
flow[sink_15,sink_29] -5.6811490493238914e+01
flow[sink_29,sink_28] 1.6354166666667879e+01
flow[sink_29,sink_2] 6.0071290727231414e+01
flow[sink_2,sink_15] 4.3717124060564743e+01
flow[sink_29,innode_7] -1.4959111455380486e+02
flow[innode_4,sink_19] 4.6324329895618007e+01
flow[sink_19,innode_3] 4.2340845076527636e+01
flow[innode_4,innode_5] 7.3148780713233762e+01
flow[sink_27,innode_5] -7.3148780713233762e+01
flow[sink_27,sink_19] 56.7946140465671
flow[sink_10,sink_11] 3.2708333333333641e+01
flow[sink_10,innode_2] -4.4423932198990464e+01
flow[sink_10,innode_3] -4.2340845076527636e+01
flow[innode_6,sink_25] 4.9939439421844156e+00
flow[sink_11,innode_1] 1.6354166666666970e+01
flow[sink_19,innode_2] 4.4423932198990464e+01
flow[source_3,innode_4] 1.1947311060885177e+02
flow[source_2,innode_7] 1.4959111455380486e+02
flow[sink_3,innode_8] 1.4226860457143493e+02
pressure[innode_1] 7.6636843759693889e+01
pressure[innode_2] 79.1365333608632
pressure[innode_3] 7.9042774354021816e+01
pressure[innode_4] 81.01325
pressure[innode_5] 8.0962934411478287e+01
pressure[innode_6] 7.4939545250888074e+01
pressure[innode_7] 81.01325
pressure[innode_8] 8.0428368940197444e+01
pressure[source_1] 81.01325
pressure[source_2] 81.01325
pressure[source_3] 81.01325
pressure[sink_1] 4.9119030030300323e+01
pressure[sink_2] 75.4906001195194
pressure[sink_3] 8.0428368940197444e+01
pressure[sink_4] 4.4921066691088726e+01
pressure[sink_5] 3.7236882320680756e+01
pressure[sink_6] 5.1220107640687694e+01
pressure[sink_7] 2.2602885680325109e+01
pressure[sink_8] 3.9842156028149354e+01
pressure[sink_9] 5.4897192444145979e+01
pressure[sink_10] 7.6788545067297434e+01
pressure[sink_11] 7.6636843759693889e+01
pressure[sink_12] 1.01325
pressure[sink_13] 7.4967076029275773e+01
pressure[sink_14] 7.5005280291667248e+01
pressure[sink_15] 7.5347873344560611e+01
pressure[sink_16] 7.5615193924876209e+01
pressure[sink_17] 4.1076326418976542e+01
pressure[sink_18] 5.2530222468947322e+01
pressure[sink_19] 79.1365333608632
pressure[sink_20] 3.8702500604561067e+01
pressure[sink_21] 1.01325
pressure[sink_22] 5.0182799172655329e+01
pressure[sink_23] 8.0263650928537658e+01
pressure[sink_24] 1.0406988905190484e+00
pressure[sink_25] 7.4939545250888074e+01
pressure[sink_26] 5.9791387863857331e+01
pressure[sink_27] 8.0355934695971783e+01
pressure[sink_28] 7.6716991434586518e+01
pressure[sink_29] 7.7012273708203708e+01
interdiction[source_1,sink_3] 0
interdiction[innode_1,sink_16] 0
interdiction[innode_6,sink_13] 0
interdiction[sink_13,sink_14] 0
interdiction[sink_14,sink_10] 0
interdiction[sink_25,sink_26] 0
interdiction[sink_26,sink_9] 0
interdiction[sink_9,sink_18] 0
interdiction[sink_26,sink_4] 0
interdiction[sink_4,sink_20] 1
interdiction[sink_18,sink_6] 0
interdiction[sink_25,innode_8] 0
interdiction[sink_6,sink_7] 1
interdiction[sink_6,sink_22] 0
interdiction[sink_7,sink_24] 0
interdiction[sink_22,sink_1] 0
interdiction[sink_24,sink_21] 0
interdiction[sink_21,sink_12] 0
interdiction[sink_7,sink_5] 0
interdiction[sink_5,sink_17] 0
interdiction[sink_17,sink_4] 0
interdiction[sink_17,sink_8] 0
interdiction[sink_3,sink_23] 0
interdiction[sink_8,sink_20] 0
interdiction[sink_25,sink_20] 1
interdiction[sink_25,sink_15] 0
interdiction[sink_15,sink_29] 0
interdiction[sink_29,sink_28] 0
interdiction[sink_29,sink_2] 0
interdiction[sink_2,sink_15] 0
interdiction[sink_29,innode_7] 0
interdiction[innode_4,sink_19] 0
interdiction[sink_19,innode_3] 0
interdiction[innode_4,innode_5] 0
interdiction[sink_27,innode_5] 0
interdiction[sink_27,sink_19] 0
interdiction[sink_10,sink_11] 0
interdiction[sink_10,innode_2] 0
interdiction[sink_10,innode_3] 0
interdiction[innode_6,sink_25] 0
interdiction[sink_11,innode_1] 0
interdiction[sink_19,innode_2] 0
interdiction[source_3,innode_4] 0
interdiction[source_2,innode_7] 0
interdiction[sink_3,innode_8] 0
WCcheckFlow[source_1,sink_3] 39
WCcheckFlow[innode_1,sink_16] 1
WCcheckFlow[innode_6,sink_13] 13
WCcheckFlow[sink_13,sink_14] 12
WCcheckFlow[sink_14,sink_10] 11
WCcheckFlow[sink_25,sink_26] 15
WCcheckFlow[sink_26,sink_9] 5
WCcheckFlow[sink_9,sink_18] 4
WCcheckFlow[sink_26,sink_4] 9
WCcheckFlow[sink_4,sink_20] 0
WCcheckFlow[sink_18,sink_6] 3
WCcheckFlow[sink_25,innode_8] -36
WCcheckFlow[sink_6,sink_7] 0
WCcheckFlow[sink_6,sink_22] 2
WCcheckFlow[sink_7,sink_24] 3
WCcheckFlow[sink_22,sink_1] 1
WCcheckFlow[sink_24,sink_21] 2
WCcheckFlow[sink_21,sink_12] 1
WCcheckFlow[sink_7,sink_5] -4
WCcheckFlow[sink_5,sink_17] -5
WCcheckFlow[sink_17,sink_4] -8
WCcheckFlow[sink_17,sink_8] 2
WCcheckFlow[sink_3,sink_23] 1
WCcheckFlow[sink_8,sink_20] 1
WCcheckFlow[sink_25,sink_20] 0
WCcheckFlow[sink_25,sink_15] 6
WCcheckFlow[sink_15,sink_29] 5
WCcheckFlow[sink_29,sink_28] 1
WCcheckFlow[sink_29,sink_2] 1
WCcheckFlow[sink_2,sink_15] 0
WCcheckFlow[sink_29,innode_7] 2
WCcheckFlow[innode_4,sink_19] -4
WCcheckFlow[sink_19,innode_3] -5
WCcheckFlow[innode_4,innode_5] 2
WCcheckFlow[sink_27,innode_5] -1
WCcheckFlow[sink_27,sink_19] 0
WCcheckFlow[sink_10,sink_11] 3
WCcheckFlow[sink_10,innode_2] 1
WCcheckFlow[sink_10,innode_3] 6
WCcheckFlow[innode_6,sink_25] -14
WCcheckFlow[sink_11,innode_1] 2
WCcheckFlow[sink_19,innode_2] 0
WCcheckFlow[source_3,innode_4] -1
WCcheckFlow[source_2,innode_7] -1
WCcheckFlow[sink_3,innode_8] 37
